Solving original (integer) problem with strategy gdp.binary_multiplication...
--- Job model.gms Start 02/19/26 03:00:23 52.2.0 d8e408be LEX-LEG x86 64bit/Linux
--- Applying:
    /package/gams/52.2/gmsprmun.txt
--- GAMS Parameters defined
    Input /local/scratch/a/sgusev/repos/k_means/data/gams_gurobi_gdp.binary_multiplication/no_mode/2026-02-19_03-00-22/original/model.gms
    Output /local/scratch/a/sgusev/repos/k_means/data/gams_gurobi_gdp.binary_multiplication/no_mode/2026-02-19_03-00-22/original/output.lst
    ScrDir /local/scratch/a/sgusev/repos/k_means/data/gams_gurobi_gdp.binary_multiplication/no_mode/2026-02-19_03-00-22/original/225a/
    SysDir /package/gams/52.2/
    CurDir /local/scratch/a/sgusev/repos/k_means/data/gams_gurobi_gdp.binary_multiplication/no_mode/2026-02-19_03-00-22/original/
    LogOption 3
    AppendLog 1
Licensee: David Bernal / SECQUOIA Research Group         G251008+0003Ac-GEN
          Purdue University, Davidson School of Chemical EngineeringDCE4838
          225a/gamslice.dat
          5a82958a-fbca-4a23
          node:66820903 mem:995 cores:48 ipport:38373 v:2                  
          Evaluation license: Not for commercial or production use
          The time-limited license stops working on : Jun 30, 2027
System information: 48 physical cores and 995 Gb physical memory detected
GAMS 52.2.0   Copyright (C) 1987-2025 GAMS Development. All rights reserved
--- Starting compilation
--- model.gms(305) 2 Mb
--- $echo File /local/scratch/a/sgusev/repos/k_means/data/gams_gurobi_gdp.binary_multiplication/no_mode/2026-02-19_03-00-22/original/gurobi.opt
--- model.gms(526) 2 Mb
--- Starting execution: elapsed 0:00:00.007
--- model.gms(314) 3 Mb
--- Generating MINLP model GAMS_MODEL
--- model.gms(318) 5 Mb
---   69 rows  86 columns  436 non-zeroes
---   1,196 nl-code  364 nl-non-zeroes
---   52 discrete-columns
--- Range statistics (absolute non-zero finite values)
--- RHS       [min, max] : [ 1.000E+00, 1.000E+00] - Zero values observed as well
--- Bound     [min, max] : [ 1.000E+00, 1.300E+02] - Zero values observed as well
--- Matrix    [min, max] : [ 5.144E-01, 2.491E+00] - Zero values observed as well
--- model.gms(318) 3 Mb
--- Executing GUROBI (Solvelink=5): elapsed 0:00:00.010
Reading parameter(s) from "/local/scratch/a/sgusev/repos/k_means/data/gams_gurobi_gdp.binary_multiplication/no_mode/2026-02-19_03-00-22/original/gurobi.opt"
>>  NonConvex 2
>>  Threads 1
>>  MIPGap 1e-06
>>  MIPGapAbs 1e-10
>>  FeasibilityTol 1e-06
>>  OptimalityTol 1e-06
>>  IntFeasTol 1e-05
Finished reading from "/local/scratch/a/sgusev/repos/k_means/data/gams_gurobi_gdp.binary_multiplication/no_mode/2026-02-19_03-00-22/original/gurobi.opt"

... GRB_LICENSE_FILE = /local/scratch/a/sgusev/gurobi.lic

    Gurobi           52.2.0 d8e408be Dec 8, 2025           LEG x86 64bit/Linux    

... GAMS/Gurobi Link license.
... GMO Q Extraction (ThreePass): 0.00s

    Gurobi Optimizer version 13.0.0 build v13.0.0rc1 (linux64 - "Oracle Linux Server 9.7")
    
    CPU model: AMD EPYC 7643 48-Core Processor, instruction set [SSE2|AVX|AVX2]
    Thread count: 48 physical cores, 96 logical processors, using up to 1 threads
    
    Non-default parameters:
    TimeLimit  300
    MIPGap  1e-06
    LogToConsole  0
    NonConvex  2
    Threads  1
    
    Optimize a model with 68 rows, 137 columns and 110 nonzeros (Min)
    Model fingerprint: 0x6ab1f4e6
    Model has 13 linear objective coefficients
    Model has 52 general nonlinear constraints (312 nonlinear terms)
    Variable types: 85 continuous, 52 integer (0 binary)
    Coefficient statistics:
      Matrix range     [1e+00, 1e+00]
      Objective range  [1e+00, 1e+00]
      Bounds range     [1e+00, 1e+02]
      RHS range        [1e+00, 1e+00]
      NLCon coe range  [5e-03, 1e+00]
    Presolve model has 52 nlconstr
    Added 572 variables to disaggregate expressions
    Presolve removed 52 rows and 0 columns
    Presolve time: 0.00s
    Presolved: 1316 rows, 762 columns, 3022 nonzeros
    Presolved model has 260 bilinear constraint(s)
    
    Solving non-convex MIQCP to global optimality
    
    Variable types: 710 continuous, 52 integer (52 binary)
    Found heuristic solution: objective 18.9728808
    
    Root relaxation: objective 0.000000e+00, 309 iterations, 0.00 seconds (0.00 work units)
    
        Nodes    |    Current Node    |     Objective Bounds      |     Work
     Expl Unexpl |  Obj  Depth IntInf | Incumbent    BestBd   Gap | It/Node Time
    
         0     0    0.00000    0  111   18.97288    0.00000   100%     -    0s
         0     0    0.00000    0  124   18.97288    0.00000   100%     -    0s
         0     0    0.00000    0  221   18.97288    0.00000   100%     -    0s
         0     0    0.00000    0  264   18.97288    0.00000   100%     -    0s
         0     0    0.00000    0  266   18.97288    0.00000   100%     -    0s
         0     0    0.00000    0  289   18.97288    0.00000   100%     -    0s
         0     0    0.00000    0  277   18.97288    0.00000   100%     -    0s
         0     0    0.00000    0  270   18.97288    0.00000   100%     -    0s
         0     0    0.00000    0  245   18.97288    0.00000   100%     -    0s
         0     0    0.00000    0  280   18.97288    0.00000   100%     -    0s
         0     0    0.00000    0  280   18.97288    0.00000   100%     -    0s
         0     0    0.00000    0  280   18.97288    0.00000   100%     -    0s
    H    0     0                      13.4223087    0.00000   100%     -    0s
    H    0     0                      13.1944820    0.00000   100%     -    0s
    H    0     0                      12.7421821    0.00000   100%     -    0s
         0     2    0.00000    0  280   12.74218    0.00000   100%     -    0s
    H    3     3                      12.7359022    0.00000   100%  16.7    0s
    H    3     3                      12.7283886    0.00000   100%  16.7    0s
    H    4     4                      12.4865916    0.00000   100%  22.2    0s
    H    4     4                      12.4704867    0.00000   100%  22.2    0s
    H    4     4                      12.4673634    0.00000   100%  22.2    0s
    H    4     4                      12.4670568    0.00000   100%  22.2    0s
    H    4     4                      12.4669673    0.00000   100%  22.2    0s
    H    4     4                      12.4669640    0.00000   100%  22.2    0s
    H    4     4                      12.4669608    0.00000   100%  22.2    0s
    H    4     4                      12.4669608    0.00000   100%  22.2    0s
    H    5     5                      12.1420339    0.00000   100%  19.8    0s
    H   12    12                      11.9860686    0.00000   100%  17.8    0s
    H   12    12                      11.9774577    0.00000   100%  17.8    0s
    H   12    12                      11.9721268    0.00000   100%  17.8    0s
    H   12    12                      11.9329379    0.00000   100%  17.8    0s
    H   45    45                      11.5950253    0.00000   100%  15.4    0s
    H   46    46                      11.5950253    0.00000   100%  15.1    0s
    H   48    48                       9.3574792    0.00000   100%  15.0    0s
    H   51    49                       9.3562212    0.00000   100%  14.8    0s
    H  138   132                       9.1132047    0.00000   100%  10.2    0s
    H  138   132                       9.0983015    0.00000   100%  10.2    0s
    H  150   142                       9.0287417    0.00000   100%  10.6    0s
    H  173   153                       9.0207257    0.00000   100%  13.5    1s
    H  173   153                       9.0205346    0.00000   100%  13.5    1s
    H  173   153                       9.0205323    0.00000   100%  13.5    1s
    H  209   187                       8.9731869    0.00000   100%  14.2    1s
    H  406   322                       8.9403395    0.00000   100%  14.0    1s
    H  421   337                       8.9248406    0.00000   100%  14.2    1s
    H  449   363                       8.9247502    0.00000   100%  14.0    1s
    H  465   367                       8.9247493    0.00000   100%  14.2    1s
    H  545   429                       8.5154484    0.00000   100%  13.7    1s
    H  617   449                       8.4598068    0.00000   100%  21.9    2s
    H  618   427                       8.4485729    0.00000   100%  21.9    2s
    H  618   405                       8.4456286    0.00000   100%  21.9    2s
    H  618   385                       8.4454291    0.00000   100%  21.9    2s
    H  618   366                       8.4445473    0.00000   100%  21.9    2s
    H  633   357                       8.3635640    0.00000   100%  22.3    2s
    H  633   340                       8.3469108    0.00000   100%  22.3    2s
    H  633   323                       8.3468475    0.00000   100%  22.3    2s
    H  649   318                       8.1625586    0.00000   100%  22.4    2s
    H  704   337                       8.1573778    0.00000   100%  22.3    2s
    H  731   339                       8.0779279    0.00000   100%  21.9    2s
    H  737   329                       8.0746918    0.00000   100%  21.7    2s
    H  744   321                       8.0580234    0.00000   100%  21.6    2s
    H  778   314                       7.8499628    0.00000   100%  21.1    2s
    H  778   302                       7.8497538    0.00000   100%  21.1    2s
    H  778   291                       7.8440601    0.00000   100%  21.1    2s
    H  787   287                       7.8439807    0.00000   100%  21.5    2s
    H  787   277                       7.8439750    0.00000   100%  21.5    2s
    H  800   275                       7.7362841    0.00000   100%  21.7    2s
    H  820   280                       7.7057390    0.00000   100%  21.6    2s
    H  837   281                       7.4351370    0.00000   100%  21.4    2s
    H  837   273                       7.4254081    0.00000   100%  21.4    2s
    H  837   265                       7.4247504    0.00000   100%  21.4    2s
    H  837   258                       7.4166056    0.00000   100%  21.4    2s
    H  837   251                       7.4152248    0.00000   100%  21.4    2s
    H  890   272                       7.4139457    0.00000   100%  20.6    2s
    H  890   266                       7.4135081    0.00000   100%  20.6    2s
    H  890   260                       7.4128889    0.00000   100%  20.6    2s
    H 1001   320                       7.4128862    0.00000   100%  19.9    3s
    H 1049   366                       7.4128862    0.00000   100%  19.8    3s
    H 1191   465                       7.3909946    0.00000   100%  19.8    3s
    H 1363   567                       7.3668230    0.00000   100%  21.3    3s
    H 1363   567                       7.3520226    0.00000   100%  21.3    3s
    H 1363   567                       7.3516378    0.00000   100%  21.3    3s
    H 1368   572                       7.3516104    0.00000   100%  21.4    3s
    H 1368   571                       7.2555026    0.00000   100%  21.4    3s
    H 1368   571                       7.2538990    0.00000   100%  21.4    3s
    H 1368   571                       7.2518449    0.00000   100%  21.4    3s
    H 1368   571                       7.2510339    0.00000   100%  21.4    3s
    H 1397   595                       7.2054902    0.00000   100%  21.4    3s
    H 1397   595                       7.2025407    0.00000   100%  21.4    3s
    H 1397   595                       7.2025008    0.00000   100%  21.4    3s
    H 1440   617                       7.0817907    0.00000   100%  21.4    3s
    H 1440   617                       7.0688085    0.00000   100%  21.4    3s
    H 1440   617                       7.0651564    0.00000   100%  21.4    3s
    H 1440   617                       7.0649179    0.00000   100%  21.4    3s
    H 1440   617                       7.0648821    0.00000   100%  21.4    3s
    H 1478   648                       7.0316612    0.00000   100%  21.6    3s
    H 1478   648                       7.0293564    0.00000   100%  21.6    3s
    H 1478   648                       7.0256081    0.00000   100%  21.6    3s
    H 1478   648                       7.0242090    0.00000   100%  21.6    3s
    H 1478   648                       7.0239221    0.00000   100%  21.6    3s
    H 1478   648                       7.0239129    0.00000   100%  21.6    3s
    H 1549   697                       6.6941880    0.00000   100%  21.7    3s
    H 1549   696                       6.6830815    0.00000   100%  21.7    3s
    H 1549   696                       6.6816419    0.00000   100%  21.7    3s
    H 1549   696                       6.6734134    0.00000   100%  21.7    3s
    H 1549   696                       6.6731790    0.00000   100%  21.7    3s
    H 2017  1006                       6.6731675    0.00000   100%  22.3    4s
    H 2156  1093                       6.6730026    0.00000   100%  22.8    4s
    H 2180  1109                       6.6729967    0.00000   100%  23.0    4s
    H 2195  1112                       6.5196578    0.00000   100%  23.0    4s
    H 2195  1108                       6.4460899    0.00000   100%  23.0    4s
    H 2195  1108                       6.4231567    0.00000   100%  23.0    4s
    H 2195  1108                       6.4221154    0.00000   100%  23.0    4s
      2237  1132    5.72285   25  238    6.42212    0.00000   100%  23.1    5s
    H 2240  1131                       6.4220830    0.00000   100%  23.1    5s
    H 2287  1149                       6.4220829    0.00000   100%  23.0    5s
    H 2392  1203                       6.4185023    0.00000   100%  23.2    5s
    H 2392  1203                       6.4176072    0.00000   100%  23.2    5s
    H 2483  1238                       6.4176039    0.00000   100%  23.4    5s
    H 2546  1282                       6.4176026    0.00000   100%  24.0    5s
    H 3157  1594                       6.4175012    0.00000   100%  24.3    6s
    H 3702  1873                       6.1201785    0.00000   100%  24.3    7s
    H 3732  1891                       6.1200345    0.00000   100%  24.2    7s
    H 3751  1896                       6.1200297    0.00000   100%  24.1    7s
    H 3821  1932                       6.1200290    0.00192   100%  24.1    7s
    H 4821  2392                       6.1199900    0.48242  92.1%  23.9    8s
      6033  3005    2.49189   33  253    6.11999    0.69584  88.6%  23.4   10s
     11257  5146    5.19034   30  255    6.11999    1.16465  81.0%  22.6   15s
     16196  6997     cutoff   70         6.11999    1.51666  75.2%  22.7   20s
     20750  8394     cutoff   34         6.11999    1.81131  70.4%  23.1   25s
     25369  9598    4.55186   35  269    6.11999    2.05965  66.3%  23.2   30s
     30122 10753    4.13097   28  227    6.11999    2.24670  63.3%  23.3   35s
     34534 11877     cutoff   35         6.11999    2.35987  61.4%  23.5   40s
     39060 12702     cutoff   42         6.11999    2.54862  58.4%  23.5   45s
    H40192 12929                       6.1196378    2.58457  57.8%  23.5   46s
    H40196 12927                       6.1196378    2.58457  57.8%  23.5   46s
    H40248 12928                       6.1196378    2.58551  57.8%  23.5   46s
    H42200 13203                       6.1196374    2.67218  56.3%  23.6   49s
    H42568 13265                       6.1196370    2.68913  56.1%  23.6   49s
     42788 13306    5.51976   31  243    6.11964    2.69546  56.0%  23.6   50s
    H45626 13696                       6.1196349    2.78017  54.6%  23.7   53s
     47040 13896    4.52215   37  239    6.11963    2.82712  53.8%  23.7   55s
     50847 14282 infeasible   27         6.11963    2.94259  51.9%  23.7   60s
     55006 14846     cutoff   33         6.11963    3.04390  50.3%  23.8   65s
     59171 15307     cutoff   36         6.11963    3.14786  48.6%  23.9   70s
     63402 15767    4.62440   31  259    6.11963    3.24328  47.0%  23.9   75s
     67556 16151    5.48036   37  196    6.11963    3.32410  45.7%  24.0   80s
     71661 17055     cutoff   22         6.11963    3.39240  44.6%  23.9   85s
     75901 17254    5.64181   29  242    6.11963    3.47279  43.3%  24.0   90s
     80042 17570 infeasible   29         6.11963    3.54390  42.1%  24.0   95s
    H83944 17874                       6.1196336    3.60806  41.0%  24.0   99s
     83945 17877    4.76554   26  266    6.11963    3.60806  41.0%  24.0  100s
     87274 18049    5.23743   27  264    6.11963    3.66770  40.1%  24.0  105s
     91195 18063     cutoff   32         6.11963    3.73897  38.9%  24.0  110s
     95386 18246    5.57803   31  226    6.11963    3.79772  37.9%  24.0  115s
     99253 18192     cutoff   32         6.11963    3.86718  36.8%  24.1  120s
     103150 18117     cutoff   33         6.11963    3.93198  35.7%  24.1  125s
     107132 17986 infeasible   31         6.11963    4.00083  34.6%  24.1  130s
     110827 17747    4.61501   30  235    6.11963    4.07363  33.4%  24.2  135s
     114657 17535    5.47613   36  265    6.11963    4.14372  32.3%  24.2  140s
     118426 17121     cutoff   30         6.11963    4.21860  31.1%  24.3  145s
     122032 17054     cutoff   34         6.11963    4.28976  29.9%  24.3  150s
     125612 16636    5.15990   58  197    6.11963    4.34968  28.9%  24.4  155s
     129207 16304    5.00075   40  259    6.11963    4.41530  27.9%  24.4  160s
     132899 15798    5.96350   43  220    6.11963    4.48937  26.6%  24.4  165s
     136104 15607     cutoff   31         6.11963    4.56358  25.4%  24.4  170s
    H136463 15537                       6.1196330    4.57082  25.3%  24.4  170s
     139548 14908    4.90742   40  243    6.11963    4.64155  24.2%  24.4  175s
     143234 14239    5.30023   27  255    6.11963    4.72038  22.9%  24.4  180s
     146427 13490     cutoff   29         6.11963    4.79909  21.6%  24.4  185s
     149876 12609    5.12363   43  199    6.11963    4.88219  20.2%  24.4  190s
     153304 11613    5.77284   42  236    6.11963    4.96413  18.9%  24.4  195s
     156681 10532    5.38276   31  262    6.11963    5.04093  17.6%  24.4  200s
     160044  9704     cutoff   25         6.11963    5.11970  16.3%  24.3  205s
     163465  9570    6.09039   98  221    6.11963    5.18752  15.2%  24.2  210s
     166973  9570    6.05675   60  181    6.11963    5.24937  14.2%  24.1  215s
     170750 10776    5.96329  113  220    6.11963    5.28726  13.6%  23.8  220s
     174575 11786    5.51327   37  257    6.11963    5.32485  13.0%  23.6  225s
     178423 13201    6.02983   71  129    6.11963    5.35497  12.5%  23.3  230s
     182200 14202    5.48401   39  249    6.11963    5.38266  12.0%  23.1  235s
     185945 15380    5.86755   65  194    6.11963    5.40324  11.7%  22.9  240s
     189973 17302    5.64235   63  202    6.11963    5.41415  11.5%  22.7  245s
     194001 19322    5.45156   59  228    6.11963    5.42448  11.4%  22.4  250s
     197950 20968    6.05316   79  221    6.11963    5.43374  11.2%  22.2  255s
     201467 22124    5.83147   61  205    6.11963    5.44178  11.1%  22.0  260s
     205266 23559    6.07823   80  208    6.11963    5.45078  10.9%  21.8  265s
     209106 24945     cutoff   59         6.11963    5.45745  10.8%  21.6  270s
     212935 26278    6.03252   85  220    6.11963    5.46525  10.7%  21.5  275s
     216419 27537    5.47483   44  237    6.11963    5.47254  10.6%  21.3  280s
     220314 28816    5.99376   77  206    6.11963    5.47933  10.5%  21.1  285s
     224227 30421    5.82037   75  194    6.11963    5.48685  10.3%  21.0  290s
     228162 31770    5.88812   63  193    6.11963    5.49489  10.2%  20.8  295s
     232046 32961    6.02555   61  168    6.11963    5.50373  10.1%  20.7  300s
    
    Cutting planes:
      Gomory: 5
      Implied bound: 5
      MIR: 9
      Flow cover: 49
      Inf proof: 1
      RLT: 6
      Relax-and-lift: 1
    
    Explored 232047 nodes (4800077 simplex iterations) in 300.00 seconds (207.16 work units)
    Thread count was 1 (of 96 available processors)
    
    Solution count 10: 6.11963 6.11963 6.11964 ... 6.4175
    
    Time limit reached
    Best objective 6.119632989774e+00, best bound 5.503725828561e+00, gap 10.0644%
    
    User-callback calls 232172, time in user-callback 0.01 sec

--- Reading solution for model GAMS_MODEL
***
*** Solver did not provide marginals for model GAMS_MODEL
***
--- Executing after solve: elapsed 0:05:00.060
--- model.gms(321) 3 Mb
--- model.gms(526) 5 Mb
--- Putfile results /local/scratch/a/sgusev/repos/k_means/data/gams_gurobi_gdp.binary_multiplication/no_mode/2026-02-19_03-00-22/original/results.dat
--- Putfile statresults /local/scratch/a/sgusev/repos/k_means/data/gams_gurobi_gdp.binary_multiplication/no_mode/2026-02-19_03-00-22/original/resultsstat.dat
*** Status: Normal completion
--- Job model.gms Stop 02/19/26 03:05:23 elapsed 0:05:00.061
Original problem solved. Time taken: 300.5288345813751 seconds
Original objective value: 6.119632989774387
